[[63, 61, 62, 72, 81, 71, 70, 80, 69, 78, 79, 88, 87, 89, 90, 99, 98, 97, 96, 86, 95, 94, 93, 92, 91, 83, 82, 73, 84, 85, 76, 75, 77, 68, 67], [59, 66, 74, 65, 64, 56, 57, 58, 55, 46, 47, 48, 39, 40, 38, 37, 29, 28, 30, 19, 31, 21, 22, 23, 13, 20, 12, 11, 10, 2, 3, 4], [14, 5, 6, 7, 8, 9, 18, 17, 16, 15, 24, 25, 26, 27, 35, 36, 44, 34, 43, 33, 42, 32, 41, 50, 49, 60, 51, 52, 53, 45, 54]]